32      4       
10      11      13      12      
0       0       0       0       0       3       2       3       4       
5       0       0       0       9       3       5       12      15      
2       9       0       0       0       2       13      14      
5       0       0       0       3       3       6       8       20      
8       0       0       0       10      2       10      23      
8       0       0       7       0       3       7       9       16      
9       0       0       0       10      3       10      18      27      
6       0       0       8       0       1       18      
1       10      0       0       0       3       11      17      19      
10      0       0       10      0       3       22      24      26      
2       0       0       5       0       1       18      
2       0       9       0       0       3       14      19      29      
7       0       5       0       0       3       21      25      29      
5       0       2       0       0       1       23      
10      0       0       0       9       3       16      22      27      
9       0       8       0       0       2       19      26      
8       0       0       6       0       3       24      26      31      
9       0       0       0       6       2       24      29      
10      0       0       0       8       1       25      
8       0       0       10      0       2       25      31      
6       0       10      0       0       1       23      
3       0       0       2       0       1       31      
10      0       5       0       0       1       30      
1       8       0       0       0       1       28      
5       0       0       0       7       1       30      
4       0       7       0       0       1       28      
7       4       0       0       0       1       28      
8       0       8       0       0       1       30      
2       3       0       0       0       1       32      
1       0       0       7       0       1       32      
10      0       0       0       6       1       32      
0       0       0       0       0       0       